c Problem generated from carry-save[n-bit] multiplication circuit
c by Paul Purdom and Amr Sabry
c
c Circuit for product = 5001 [True,False,False,True,True,True,False,False,False,True,False,False,True]
c Variables for output [msb,...,lsb]: [452,451,446,441,436,431,426,421,416,411,406,402,338,271,204,137,70,34,20]
c Variables for first input [msb,...,lsb]: [12,11,10,9,8,7,6,5,4,3,2,1]
c Variables for second input [msb,...,lsb]: [19,18,17,16,15,14,13]
c
c
p cnf 452 1751
1 13 -20 0
1 -13 -20 0
-1 13 -20 0
-1 -13 20 0
2 13 -21 0
2 -13 -21 0
-2 13 -21 0
-2 -13 21 0
3 13 -22 0
3 -13 -22 0
-3 13 -22 0
-3 -13 22 0
4 13 -23 0
4 -13 -23 0
-4 13 -23 0
-4 -13 23 0
5 13 -24 0
5 -13 -24 0
-5 13 -24 0
-5 -13 24 0
6 13 -25 0
6 -13 -25 0
-6 13 -25 0
-6 -13 25 0
7 13 -26 0
7 -13 -26 0
-7 13 -26 0
-7 -13 26 0
8 13 -27 0
8 -13 -27 0
-8 13 -27 0
-8 -13 27 0
9 13 -28 0
9 -13 -28 0
-9 13 -28 0
-9 -13 28 0
10 13 -29 0
10 -13 -29 0
-10 13 -29 0
-10 -13 29 0
11 13 -30 0
11 -13 -30 0
-11 13 -30 0
-11 -13 30 0
12 13 -31 0
12 -13 -31 0
-12 13 -31 0
-12 -13 31 0
1 14 -32 0
1 -14 -32 0
-1 14 -32 0
-1 -14 32 0
21 32 -33 0
21 -32 -33 0
-21 32 -33 0
-21 -32 33 0
21 32 -34 0
21 -32 34 0
-21 32 34 0
-21 -32 -34 0
2 14 -35 0
2 -14 -35 0
-2 14 -35 0
-2 -14 35 0
22 35 -36 0
22 -35 -36 0
-22 35 -36 0
-22 -35 36 0
22 35 -37 0
22 -35 37 0
-22 35 37 0
-22 -35 -37 0
3 14 -38 0
3 -14 -38 0
-3 14 -38 0
-3 -14 38 0
23 38 -39 0
23 -38 -39 0
-23 38 -39 0
-23 -38 39 0
23 38 -40 0
23 -38 40 0
-23 38 40 0
-23 -38 -40 0
4 14 -41 0
4 -14 -41 0
-4 14 -41 0
-4 -14 41 0
24 41 -42 0
24 -41 -42 0
-24 41 -42 0
-24 -41 42 0
24 41 -43 0
24 -41 43 0
-24 41 43 0
-24 -41 -43 0
5 14 -44 0
5 -14 -44 0
-5 14 -44 0
-5 -14 44 0
25 44 -45 0
25 -44 -45 0
-25 44 -45 0
-25 -44 45 0
25 44 -46 0
25 -44 46 0
-25 44 46 0
-25 -44 -46 0
6 14 -47 0
6 -14 -47 0
-6 14 -47 0
-6 -14 47 0
26 47 -48 0
26 -47 -48 0
-26 47 -48 0
-26 -47 48 0
26 47 -49 0
26 -47 49 0
-26 47 49 0
-26 -47 -49 0
7 14 -50 0
7 -14 -50 0
-7 14 -50 0
-7 -14 50 0
27 50 -51 0
27 -50 -51 0
-27 50 -51 0
-27 -50 51 0
27 50 -52 0
27 -50 52 0
-27 50 52 0
-27 -50 -52 0
8 14 -53 0
8 -14 -53 0
-8 14 -53 0
-8 -14 53 0
28 53 -54 0
28 -53 -54 0
-28 53 -54 0
-28 -53 54 0
28 53 -55 0
28 -53 55 0
-28 53 55 0
-28 -53 -55 0
9 14 -56 0
9 -14 -56 0
-9 14 -56 0
-9 -14 56 0
29 56 -57 0
29 -56 -57 0
-29 56 -57 0
-29 -56 57 0
29 56 -58 0
29 -56 58 0
-29 56 58 0
-29 -56 -58 0
10 14 -59 0
10 -14 -59 0
-10 14 -59 0
-10 -14 59 0
30 59 -60 0
30 -59 -60 0
-30 59 -60 0
-30 -59 60 0
30 59 -61 0
30 -59 61 0
-30 59 61 0
-30 -59 -61 0
11 14 -62 0
11 -14 -62 0
-11 14 -62 0
-11 -14 62 0
31 62 -63 0
31 -62 -63 0
-31 62 -63 0
-31 -62 63 0
31 62 -64 0
31 -62 64 0
-31 62 64 0
-31 -62 -64 0
12 14 -65 0
12 -14 -65 0
-12 14 -65 0
-12 -14 65 0
1 15 -66 0
1 -15 -66 0
-1 15 -66 0
-1 -15 66 0
37 66 -67 0
37 -66 -67 0
-37 66 -67 0
-37 -66 67 0
37 66 -68 0
37 -66 68 0
-37 66 68 0
-37 -66 -68 0
33 68 -69 0
33 -68 -69 0
-33 68 -69 0
-33 -68 69 0
33 68 -70 0
33 -68 70 0
-33 68 70 0
-33 -68 -70 0
67 69 -71 0
67 -69 71 0
-67 69 71 0
-67 -69 -71 0
2 15 -72 0
2 -15 -72 0
-2 15 -72 0
-2 -15 72 0
40 72 -73 0
40 -72 -73 0
-40 72 -73 0
-40 -72 73 0
40 72 -74 0
40 -72 74 0
-40 72 74 0
-40 -72 -74 0
36 74 -75 0
36 -74 -75 0
-36 74 -75 0
-36 -74 75 0
36 74 -76 0
36 -74 76 0
-36 74 76 0
-36 -74 -76 0
73 75 -77 0
73 -75 77 0
-73 75 77 0
-73 -75 -77 0
3 15 -78 0
3 -15 -78 0
-3 15 -78 0
-3 -15 78 0
43 78 -79 0
43 -78 -79 0
-43 78 -79 0
-43 -78 79 0
43 78 -80 0
43 -78 80 0
-43 78 80 0
-43 -78 -80 0
39 80 -81 0
39 -80 -81 0
-39 80 -81 0
-39 -80 81 0
39 80 -82 0
39 -80 82 0
-39 80 82 0
-39 -80 -82 0
79 81 -83 0
79 -81 83 0
-79 81 83 0
-79 -81 -83 0
4 15 -84 0
4 -15 -84 0
-4 15 -84 0
-4 -15 84 0
46 84 -85 0
46 -84 -85 0
-46 84 -85 0
-46 -84 85 0
46 84 -86 0
46 -84 86 0
-46 84 86 0
-46 -84 -86 0
42 86 -87 0
42 -86 -87 0
-42 86 -87 0
-42 -86 87 0
42 86 -88 0
42 -86 88 0
-42 86 88 0
-42 -86 -88 0
85 87 -89 0
85 -87 89 0
-85 87 89 0
-85 -87 -89 0
5 15 -90 0
5 -15 -90 0
-5 15 -90 0
-5 -15 90 0
49 90 -91 0
49 -90 -91 0
-49 90 -91 0
-49 -90 91 0
49 90 -92 0
49 -90 92 0
-49 90 92 0
-49 -90 -92 0
45 92 -93 0
45 -92 -93 0
-45 92 -93 0
-45 -92 93 0
45 92 -94 0
45 -92 94 0
-45 92 94 0
-45 -92 -94 0
91 93 -95 0
91 -93 95 0
-91 93 95 0
-91 -93 -95 0
6 15 -96 0
6 -15 -96 0
-6 15 -96 0
-6 -15 96 0
52 96 -97 0
52 -96 -97 0
-52 96 -97 0
-52 -96 97 0
52 96 -98 0
52 -96 98 0
-52 96 98 0
-52 -96 -98 0
48 98 -99 0
48 -98 -99 0
-48 98 -99 0
-48 -98 99 0
48 98 -100 0
48 -98 100 0
-48 98 100 0
-48 -98 -100 0
97 99 -101 0
97 -99 101 0
-97 99 101 0
-97 -99 -101 0
7 15 -102 0
7 -15 -102 0
-7 15 -102 0
-7 -15 102 0
55 102 -103 0
55 -102 -103 0
-55 102 -103 0
-55 -102 103 0
55 102 -104 0
55 -102 104 0
-55 102 104 0
-55 -102 -104 0
51 104 -105 0
51 -104 -105 0
-51 104 -105 0
-51 -104 105 0
51 104 -106 0
51 -104 106 0
-51 104 106 0
-51 -104 -106 0
103 105 -107 0
103 -105 107 0
-103 105 107 0
-103 -105 -107 0
8 15 -108 0
8 -15 -108 0
-8 15 -108 0
-8 -15 108 0
58 108 -109 0
58 -108 -109 0
-58 108 -109 0
-58 -108 109 0
58 108 -110 0
58 -108 110 0
-58 108 110 0
-58 -108 -110 0
54 110 -111 0
54 -110 -111 0
-54 110 -111 0
-54 -110 111 0
54 110 -112 0
54 -110 112 0
-54 110 112 0
-54 -110 -112 0
109 111 -113 0
109 -111 113 0
-109 111 113 0
-109 -111 -113 0
9 15 -114 0
9 -15 -114 0
-9 15 -114 0
-9 -15 114 0
61 114 -115 0
61 -114 -115 0
-61 114 -115 0
-61 -114 115 0
61 114 -116 0
61 -114 116 0
-61 114 116 0
-61 -114 -116 0
57 116 -117 0
57 -116 -117 0
-57 116 -117 0
-57 -116 117 0
57 116 -118 0
57 -116 118 0
-57 116 118 0
-57 -116 -118 0
115 117 -119 0
115 -117 119 0
-115 117 119 0
-115 -117 -119 0
10 15 -120 0
10 -15 -120 0
-10 15 -120 0
-10 -15 120 0
64 120 -121 0
64 -120 -121 0
-64 120 -121 0
-64 -120 121 0
64 120 -122 0
64 -120 122 0
-64 120 122 0
-64 -120 -122 0
60 122 -123 0
60 -122 -123 0
-60 122 -123 0
-60 -122 123 0
60 122 -124 0
60 -122 124 0
-60 122 124 0
-60 -122 -124 0
121 123 -125 0
121 -123 125 0
-121 123 125 0
-121 -123 -125 0
11 15 -126 0
11 -15 -126 0
-11 15 -126 0
-11 -15 126 0
65 126 -127 0
65 -126 -127 0
-65 126 -127 0
-65 -126 127 0
65 126 -128 0
65 -126 128 0
-65 126 128 0
-65 -126 -128 0
63 128 -129 0
63 -128 -129 0
-63 128 -129 0
-63 -128 129 0
63 128 -130 0
63 -128 130 0
-63 128 130 0
-63 -128 -130 0
127 129 -131 0
127 -129 131 0
-127 129 131 0
-127 -129 -131 0
12 15 -132 0
12 -15 -132 0
-12 15 -132 0
-12 -15 132 0
1 16 -133 0
1 -16 -133 0
-1 16 -133 0
-1 -16 133 0
76 133 -134 0
76 -133 -134 0
-76 133 -134 0
-76 -133 134 0
76 133 -135 0
76 -133 135 0
-76 133 135 0
-76 -133 -135 0
71 135 -136 0
71 -135 -136 0
-71 135 -136 0
-71 -135 136 0
71 135 -137 0
71 -135 137 0
-71 135 137 0
-71 -135 -137 0
134 136 -138 0
134 -136 138 0
-134 136 138 0
-134 -136 -138 0
2 16 -139 0
2 -16 -139 0
-2 16 -139 0
-2 -16 139 0
82 139 -140 0
82 -139 -140 0
-82 139 -140 0
-82 -139 140 0
82 139 -141 0
82 -139 141 0
-82 139 141 0
-82 -139 -141 0
77 141 -142 0
77 -141 -142 0
-77 141 -142 0
-77 -141 142 0
77 141 -143 0
77 -141 143 0
-77 141 143 0
-77 -141 -143 0
140 142 -144 0
140 -142 144 0
-140 142 144 0
-140 -142 -144 0
3 16 -145 0
3 -16 -145 0
-3 16 -145 0
-3 -16 145 0
88 145 -146 0
88 -145 -146 0
-88 145 -146 0
-88 -145 146 0
88 145 -147 0
88 -145 147 0
-88 145 147 0
-88 -145 -147 0
83 147 -148 0
83 -147 -148 0
-83 147 -148 0
-83 -147 148 0
83 147 -149 0
83 -147 149 0
-83 147 149 0
-83 -147 -149 0
146 148 -150 0
146 -148 150 0
-146 148 150 0
-146 -148 -150 0
4 16 -151 0
4 -16 -151 0
-4 16 -151 0
-4 -16 151 0
94 151 -152 0
94 -151 -152 0
-94 151 -152 0
-94 -151 152 0
94 151 -153 0
94 -151 153 0
-94 151 153 0
-94 -151 -153 0
89 153 -154 0
89 -153 -154 0
-89 153 -154 0
-89 -153 154 0
89 153 -155 0
89 -153 155 0
-89 153 155 0
-89 -153 -155 0
152 154 -156 0
152 -154 156 0
-152 154 156 0
-152 -154 -156 0
5 16 -157 0
5 -16 -157 0
-5 16 -157 0
-5 -16 157 0
100 157 -158 0
100 -157 -158 0
-100 157 -158 0
-100 -157 158 0
100 157 -159 0
100 -157 159 0
-100 157 159 0
-100 -157 -159 0
95 159 -160 0
95 -159 -160 0
-95 159 -160 0
-95 -159 160 0
95 159 -161 0
95 -159 161 0
-95 159 161 0
-95 -159 -161 0
158 160 -162 0
158 -160 162 0
-158 160 162 0
-158 -160 -162 0
6 16 -163 0
6 -16 -163 0
-6 16 -163 0
-6 -16 163 0
106 163 -164 0
106 -163 -164 0
-106 163 -164 0
-106 -163 164 0
106 163 -165 0
106 -163 165 0
-106 163 165 0
-106 -163 -165 0
101 165 -166 0
101 -165 -166 0
-101 165 -166 0
-101 -165 166 0
101 165 -167 0
101 -165 167 0
-101 165 167 0
-101 -165 -167 0
164 166 -168 0
164 -166 168 0
-164 166 168 0
-164 -166 -168 0
7 16 -169 0
7 -16 -169 0
-7 16 -169 0
-7 -16 169 0
112 169 -170 0
112 -169 -170 0
-112 169 -170 0
-112 -169 170 0
112 169 -171 0
112 -169 171 0
-112 169 171 0
-112 -169 -171 0
107 171 -172 0
107 -171 -172 0
-107 171 -172 0
-107 -171 172 0
107 171 -173 0
107 -171 173 0
-107 171 173 0
-107 -171 -173 0
170 172 -174 0
170 -172 174 0
-170 172 174 0
-170 -172 -174 0
8 16 -175 0
8 -16 -175 0
-8 16 -175 0
-8 -16 175 0
118 175 -176 0
118 -175 -176 0
-118 175 -176 0
-118 -175 176 0
118 175 -177 0
118 -175 177 0
-118 175 177 0
-118 -175 -177 0
113 177 -178 0
113 -177 -178 0
-113 177 -178 0
-113 -177 178 0
113 177 -179 0
113 -177 179 0
-113 177 179 0
-113 -177 -179 0
176 178 -180 0
176 -178 180 0
-176 178 180 0
-176 -178 -180 0
9 16 -181 0
9 -16 -181 0
-9 16 -181 0
-9 -16 181 0
124 181 -182 0
124 -181 -182 0
-124 181 -182 0
-124 -181 182 0
124 181 -183 0
124 -181 183 0
-124 181 183 0
-124 -181 -183 0
119 183 -184 0
119 -183 -184 0
-119 183 -184 0
-119 -183 184 0
119 183 -185 0
119 -183 185 0
-119 183 185 0
-119 -183 -185 0
182 184 -186 0
182 -184 186 0
-182 184 186 0
-182 -184 -186 0
10 16 -187 0
10 -16 -187 0
-10 16 -187 0
-10 -16 187 0
130 187 -188 0
130 -187 -188 0
-130 187 -188 0
-130 -187 188 0
130 187 -189 0
130 -187 189 0
-130 187 189 0
-130 -187 -189 0
125 189 -190 0
125 -189 -190 0
-125 189 -190 0
-125 -189 190 0
125 189 -191 0
125 -189 191 0
-125 189 191 0
-125 -189 -191 0
188 190 -192 0
188 -190 192 0
-188 190 192 0
-188 -190 -192 0
11 16 -193 0
11 -16 -193 0
-11 16 -193 0
-11 -16 193 0
132 193 -194 0
132 -193 -194 0
-132 193 -194 0
-132 -193 194 0
132 193 -195 0
132 -193 195 0
-132 193 195 0
-132 -193 -195 0
131 195 -196 0
131 -195 -196 0
-131 195 -196 0
-131 -195 196 0
131 195 -197 0
131 -195 197 0
-131 195 197 0
-131 -195 -197 0
194 196 -198 0
194 -196 198 0
-194 196 198 0
-194 -196 -198 0
12 16 -199 0
12 -16 -199 0
-12 16 -199 0
-12 -16 199 0
1 17 -200 0
1 -17 -200 0
-1 17 -200 0
-1 -17 200 0
143 200 -201 0
143 -200 -201 0
-143 200 -201 0
-143 -200 201 0
143 200 -202 0
143 -200 202 0
-143 200 202 0
-143 -200 -202 0
138 202 -203 0
138 -202 -203 0
-138 202 -203 0
-138 -202 203 0
138 202 -204 0
138 -202 204 0
-138 202 204 0
-138 -202 -204 0
201 203 -205 0
201 -203 205 0
-201 203 205 0
-201 -203 -205 0
2 17 -206 0
2 -17 -206 0
-2 17 -206 0
-2 -17 206 0
149 206 -207 0
149 -206 -207 0
-149 206 -207 0
-149 -206 207 0
149 206 -208 0
149 -206 208 0
-149 206 208 0
-149 -206 -208 0
144 208 -209 0
144 -208 -209 0
-144 208 -209 0
-144 -208 209 0
144 208 -210 0
144 -208 210 0
-144 208 210 0
-144 -208 -210 0
207 209 -211 0
207 -209 211 0
-207 209 211 0
-207 -209 -211 0
3 17 -212 0
3 -17 -212 0
-3 17 -212 0
-3 -17 212 0
155 212 -213 0
155 -212 -213 0
-155 212 -213 0
-155 -212 213 0
155 212 -214 0
155 -212 214 0
-155 212 214 0
-155 -212 -214 0
150 214 -215 0
150 -214 -215 0
-150 214 -215 0
-150 -214 215 0
150 214 -216 0
150 -214 216 0
-150 214 216 0
-150 -214 -216 0
213 215 -217 0
213 -215 217 0
-213 215 217 0
-213 -215 -217 0
4 17 -218 0
4 -17 -218 0
-4 17 -218 0
-4 -17 218 0
161 218 -219 0
161 -218 -219 0
-161 218 -219 0
-161 -218 219 0
161 218 -220 0
161 -218 220 0
-161 218 220 0
-161 -218 -220 0
156 220 -221 0
156 -220 -221 0
-156 220 -221 0
-156 -220 221 0
156 220 -222 0
156 -220 222 0
-156 220 222 0
-156 -220 -222 0
219 221 -223 0
219 -221 223 0
-219 221 223 0
-219 -221 -223 0
5 17 -224 0
5 -17 -224 0
-5 17 -224 0
-5 -17 224 0
167 224 -225 0
167 -224 -225 0
-167 224 -225 0
-167 -224 225 0
167 224 -226 0
167 -224 226 0
-167 224 226 0
-167 -224 -226 0
162 226 -227 0
162 -226 -227 0
-162 226 -227 0
-162 -226 227 0
162 226 -228 0
162 -226 228 0
-162 226 228 0
-162 -226 -228 0
225 227 -229 0
225 -227 229 0
-225 227 229 0
-225 -227 -229 0
6 17 -230 0
6 -17 -230 0
-6 17 -230 0
-6 -17 230 0
173 230 -231 0
173 -230 -231 0
-173 230 -231 0
-173 -230 231 0
173 230 -232 0
173 -230 232 0
-173 230 232 0
-173 -230 -232 0
168 232 -233 0
168 -232 -233 0
-168 232 -233 0
-168 -232 233 0
168 232 -234 0
168 -232 234 0
-168 232 234 0
-168 -232 -234 0
231 233 -235 0
231 -233 235 0
-231 233 235 0
-231 -233 -235 0
7 17 -236 0
7 -17 -236 0
-7 17 -236 0
-7 -17 236 0
179 236 -237 0
179 -236 -237 0
-179 236 -237 0
-179 -236 237 0
179 236 -238 0
179 -236 238 0
-179 236 238 0
-179 -236 -238 0
174 238 -239 0
174 -238 -239 0
-174 238 -239 0
-174 -238 239 0
174 238 -240 0
174 -238 240 0
-174 238 240 0
-174 -238 -240 0
237 239 -241 0
237 -239 241 0
-237 239 241 0
-237 -239 -241 0
8 17 -242 0
8 -17 -242 0
-8 17 -242 0
-8 -17 242 0
185 242 -243 0
185 -242 -243 0
-185 242 -243 0
-185 -242 243 0
185 242 -244 0
185 -242 244 0
-185 242 244 0
-185 -242 -244 0
180 244 -245 0
180 -244 -245 0
-180 244 -245 0
-180 -244 245 0
180 244 -246 0
180 -244 246 0
-180 244 246 0
-180 -244 -246 0
243 245 -247 0
243 -245 247 0
-243 245 247 0
-243 -245 -247 0
9 17 -248 0
9 -17 -248 0
-9 17 -248 0
-9 -17 248 0
191 248 -249 0
191 -248 -249 0
-191 248 -249 0
-191 -248 249 0
191 248 -250 0
191 -248 250 0
-191 248 250 0
-191 -248 -250 0
186 250 -251 0
186 -250 -251 0
-186 250 -251 0
-186 -250 251 0
186 250 -252 0
186 -250 252 0
-186 250 252 0
-186 -250 -252 0
249 251 -253 0
249 -251 253 0
-249 251 253 0
-249 -251 -253 0
10 17 -254 0
10 -17 -254 0
-10 17 -254 0
-10 -17 254 0
197 254 -255 0
197 -254 -255 0
-197 254 -255 0
-197 -254 255 0
197 254 -256 0
197 -254 256 0
-197 254 256 0
-197 -254 -256 0
192 256 -257 0
192 -256 -257 0
-192 256 -257 0
-192 -256 257 0
192 256 -258 0
192 -256 258 0
-192 256 258 0
-192 -256 -258 0
255 257 -259 0
255 -257 259 0
-255 257 259 0
-255 -257 -259 0
11 17 -260 0
11 -17 -260 0
-11 17 -260 0
-11 -17 260 0
199 260 -261 0
199 -260 -261 0
-199 260 -261 0
-199 -260 261 0
199 260 -262 0
199 -260 262 0
-199 260 262 0
-199 -260 -262 0
198 262 -263 0
198 -262 -263 0
-198 262 -263 0
-198 -262 263 0
198 262 -264 0
198 -262 264 0
-198 262 264 0
-198 -262 -264 0
261 263 -265 0
261 -263 265 0
-261 263 265 0
-261 -263 -265 0
12 17 -266 0
12 -17 -266 0
-12 17 -266 0
-12 -17 266 0
1 18 -267 0
1 -18 -267 0
-1 18 -267 0
-1 -18 267 0
210 267 -268 0
210 -267 -268 0
-210 267 -268 0
-210 -267 268 0
210 267 -269 0
210 -267 269 0
-210 267 269 0
-210 -267 -269 0
205 269 -270 0
205 -269 -270 0
-205 269 -270 0
-205 -269 270 0
205 269 -271 0
205 -269 271 0
-205 269 271 0
-205 -269 -271 0
268 270 -272 0
268 -270 272 0
-268 270 272 0
-268 -270 -272 0
2 18 -273 0
2 -18 -273 0
-2 18 -273 0
-2 -18 273 0
216 273 -274 0
216 -273 -274 0
-216 273 -274 0
-216 -273 274 0
216 273 -275 0
216 -273 275 0
-216 273 275 0
-216 -273 -275 0
211 275 -276 0
211 -275 -276 0
-211 275 -276 0
-211 -275 276 0
211 275 -277 0
211 -275 277 0
-211 275 277 0
-211 -275 -277 0
274 276 -278 0
274 -276 278 0
-274 276 278 0
-274 -276 -278 0
3 18 -279 0
3 -18 -279 0
-3 18 -279 0
-3 -18 279 0
222 279 -280 0
222 -279 -280 0
-222 279 -280 0
-222 -279 280 0
222 279 -281 0
222 -279 281 0
-222 279 281 0
-222 -279 -281 0
217 281 -282 0
217 -281 -282 0
-217 281 -282 0
-217 -281 282 0
217 281 -283 0
217 -281 283 0
-217 281 283 0
-217 -281 -283 0
280 282 -284 0
280 -282 284 0
-280 282 284 0
-280 -282 -284 0
4 18 -285 0
4 -18 -285 0
-4 18 -285 0
-4 -18 285 0
228 285 -286 0
228 -285 -286 0
-228 285 -286 0
-228 -285 286 0
228 285 -287 0
228 -285 287 0
-228 285 287 0
-228 -285 -287 0
223 287 -288 0
223 -287 -288 0
-223 287 -288 0
-223 -287 288 0
223 287 -289 0
223 -287 289 0
-223 287 289 0
-223 -287 -289 0
286 288 -290 0
286 -288 290 0
-286 288 290 0
-286 -288 -290 0
5 18 -291 0
5 -18 -291 0
-5 18 -291 0
-5 -18 291 0
234 291 -292 0
234 -291 -292 0
-234 291 -292 0
-234 -291 292 0
234 291 -293 0
234 -291 293 0
-234 291 293 0
-234 -291 -293 0
229 293 -294 0
229 -293 -294 0
-229 293 -294 0
-229 -293 294 0
229 293 -295 0
229 -293 295 0
-229 293 295 0
-229 -293 -295 0
292 294 -296 0
292 -294 296 0
-292 294 296 0
-292 -294 -296 0
6 18 -297 0
6 -18 -297 0
-6 18 -297 0
-6 -18 297 0
240 297 -298 0
240 -297 -298 0
-240 297 -298 0
-240 -297 298 0
240 297 -299 0
240 -297 299 0
-240 297 299 0
-240 -297 -299 0
235 299 -300 0
235 -299 -300 0
-235 299 -300 0
-235 -299 300 0
235 299 -301 0
235 -299 301 0
-235 299 301 0
-235 -299 -301 0
298 300 -302 0
298 -300 302 0
-298 300 302 0
-298 -300 -302 0
7 18 -303 0
7 -18 -303 0
-7 18 -303 0
-7 -18 303 0
246 303 -304 0
246 -303 -304 0
-246 303 -304 0
-246 -303 304 0
246 303 -305 0
246 -303 305 0
-246 303 305 0
-246 -303 -305 0
241 305 -306 0
241 -305 -306 0
-241 305 -306 0
-241 -305 306 0
241 305 -307 0
241 -305 307 0
-241 305 307 0
-241 -305 -307 0
304 306 -308 0
304 -306 308 0
-304 306 308 0
-304 -306 -308 0
8 18 -309 0
8 -18 -309 0
-8 18 -309 0
-8 -18 309 0
252 309 -310 0
252 -309 -310 0
-252 309 -310 0
-252 -309 310 0
252 309 -311 0
252 -309 311 0
-252 309 311 0
-252 -309 -311 0
247 311 -312 0
247 -311 -312 0
-247 311 -312 0
-247 -311 312 0
247 311 -313 0
247 -311 313 0
-247 311 313 0
-247 -311 -313 0
310 312 -314 0
310 -312 314 0
-310 312 314 0
-310 -312 -314 0
9 18 -315 0
9 -18 -315 0
-9 18 -315 0
-9 -18 315 0
258 315 -316 0
258 -315 -316 0
-258 315 -316 0
-258 -315 316 0
258 315 -317 0
258 -315 317 0
-258 315 317 0
-258 -315 -317 0
253 317 -318 0
253 -317 -318 0
-253 317 -318 0
-253 -317 318 0
253 317 -319 0
253 -317 319 0
-253 317 319 0
-253 -317 -319 0
316 318 -320 0
316 -318 320 0
-316 318 320 0
-316 -318 -320 0
10 18 -321 0
10 -18 -321 0
-10 18 -321 0
-10 -18 321 0
264 321 -322 0
264 -321 -322 0
-264 321 -322 0
-264 -321 322 0
264 321 -323 0
264 -321 323 0
-264 321 323 0
-264 -321 -323 0
259 323 -324 0
259 -323 -324 0
-259 323 -324 0
-259 -323 324 0
259 323 -325 0
259 -323 325 0
-259 323 325 0
-259 -323 -325 0
322 324 -326 0
322 -324 326 0
-322 324 326 0
-322 -324 -326 0
11 18 -327 0
11 -18 -327 0
-11 18 -327 0
-11 -18 327 0
266 327 -328 0
266 -327 -328 0
-266 327 -328 0
-266 -327 328 0
266 327 -329 0
266 -327 329 0
-266 327 329 0
-266 -327 -329 0
265 329 -330 0
265 -329 -330 0
-265 329 -330 0
-265 -329 330 0
265 329 -331 0
265 -329 331 0
-265 329 331 0
-265 -329 -331 0
328 330 -332 0
328 -330 332 0
-328 330 332 0
-328 -330 -332 0
12 18 -333 0
12 -18 -333 0
-12 18 -333 0
-12 -18 333 0
1 19 -334 0
1 -19 -334 0
-1 19 -334 0
-1 -19 334 0
277 334 -335 0
277 -334 -335 0
-277 334 -335 0
-277 -334 335 0
277 334 -336 0
277 -334 336 0
-277 334 336 0
-277 -334 -336 0
272 336 -337 0
272 -336 -337 0
-272 336 -337 0
-272 -336 337 0
272 336 -338 0
272 -336 338 0
-272 336 338 0
-272 -336 -338 0
335 337 -339 0
335 -337 339 0
-335 337 339 0
-335 -337 -339 0
2 19 -340 0
2 -19 -340 0
-2 19 -340 0
-2 -19 340 0
283 340 -341 0
283 -340 -341 0
-283 340 -341 0
-283 -340 341 0
283 340 -342 0
283 -340 342 0
-283 340 342 0
-283 -340 -342 0
278 342 -343 0
278 -342 -343 0
-278 342 -343 0
-278 -342 343 0
278 342 -344 0
278 -342 344 0
-278 342 344 0
-278 -342 -344 0
341 343 -345 0
341 -343 345 0
-341 343 345 0
-341 -343 -345 0
3 19 -346 0
3 -19 -346 0
-3 19 -346 0
-3 -19 346 0
289 346 -347 0
289 -346 -347 0
-289 346 -347 0
-289 -346 347 0
289 346 -348 0
289 -346 348 0
-289 346 348 0
-289 -346 -348 0
284 348 -349 0
284 -348 -349 0
-284 348 -349 0
-284 -348 349 0
284 348 -350 0
284 -348 350 0
-284 348 350 0
-284 -348 -350 0
347 349 -351 0
347 -349 351 0
-347 349 351 0
-347 -349 -351 0
4 19 -352 0
4 -19 -352 0
-4 19 -352 0
-4 -19 352 0
295 352 -353 0
295 -352 -353 0
-295 352 -353 0
-295 -352 353 0
295 352 -354 0
295 -352 354 0
-295 352 354 0
-295 -352 -354 0
290 354 -355 0
290 -354 -355 0
-290 354 -355 0
-290 -354 355 0
290 354 -356 0
290 -354 356 0
-290 354 356 0
-290 -354 -356 0
353 355 -357 0
353 -355 357 0
-353 355 357 0
-353 -355 -357 0
5 19 -358 0
5 -19 -358 0
-5 19 -358 0
-5 -19 358 0
301 358 -359 0
301 -358 -359 0
-301 358 -359 0
-301 -358 359 0
301 358 -360 0
301 -358 360 0
-301 358 360 0
-301 -358 -360 0
296 360 -361 0
296 -360 -361 0
-296 360 -361 0
-296 -360 361 0
296 360 -362 0
296 -360 362 0
-296 360 362 0
-296 -360 -362 0
359 361 -363 0
359 -361 363 0
-359 361 363 0
-359 -361 -363 0
6 19 -364 0
6 -19 -364 0
-6 19 -364 0
-6 -19 364 0
307 364 -365 0
307 -364 -365 0
-307 364 -365 0
-307 -364 365 0
307 364 -366 0
307 -364 366 0
-307 364 366 0
-307 -364 -366 0
302 366 -367 0
302 -366 -367 0
-302 366 -367 0
-302 -366 367 0
302 366 -368 0
302 -366 368 0
-302 366 368 0
-302 -366 -368 0
365 367 -369 0
365 -367 369 0
-365 367 369 0
-365 -367 -369 0
7 19 -370 0
7 -19 -370 0
-7 19 -370 0
-7 -19 370 0
313 370 -371 0
313 -370 -371 0
-313 370 -371 0
-313 -370 371 0
313 370 -372 0
313 -370 372 0
-313 370 372 0
-313 -370 -372 0
308 372 -373 0
308 -372 -373 0
-308 372 -373 0
-308 -372 373 0
308 372 -374 0
308 -372 374 0
-308 372 374 0
-308 -372 -374 0
371 373 -375 0
371 -373 375 0
-371 373 375 0
-371 -373 -375 0
8 19 -376 0
8 -19 -376 0
-8 19 -376 0
-8 -19 376 0
319 376 -377 0
319 -376 -377 0
-319 376 -377 0
-319 -376 377 0
319 376 -378 0
319 -376 378 0
-319 376 378 0
-319 -376 -378 0
314 378 -379 0
314 -378 -379 0
-314 378 -379 0
-314 -378 379 0
314 378 -380 0
314 -378 380 0
-314 378 380 0
-314 -378 -380 0
377 379 -381 0
377 -379 381 0
-377 379 381 0
-377 -379 -381 0
9 19 -382 0
9 -19 -382 0
-9 19 -382 0
-9 -19 382 0
325 382 -383 0
325 -382 -383 0
-325 382 -383 0
-325 -382 383 0
325 382 -384 0
325 -382 384 0
-325 382 384 0
-325 -382 -384 0
320 384 -385 0
320 -384 -385 0
-320 384 -385 0
-320 -384 385 0
320 384 -386 0
320 -384 386 0
-320 384 386 0
-320 -384 -386 0
383 385 -387 0
383 -385 387 0
-383 385 387 0
-383 -385 -387 0
10 19 -388 0
10 -19 -388 0
-10 19 -388 0
-10 -19 388 0
331 388 -389 0
331 -388 -389 0
-331 388 -389 0
-331 -388 389 0
331 388 -390 0
331 -388 390 0
-331 388 390 0
-331 -388 -390 0
326 390 -391 0
326 -390 -391 0
-326 390 -391 0
-326 -390 391 0
326 390 -392 0
326 -390 392 0
-326 390 392 0
-326 -390 -392 0
389 391 -393 0
389 -391 393 0
-389 391 393 0
-389 -391 -393 0
11 19 -394 0
11 -19 -394 0
-11 19 -394 0
-11 -19 394 0
333 394 -395 0
333 -394 -395 0
-333 394 -395 0
-333 -394 395 0
333 394 -396 0
333 -394 396 0
-333 394 396 0
-333 -394 -396 0
332 396 -397 0
332 -396 -397 0
-332 396 -397 0
-332 -396 397 0
332 396 -398 0
332 -396 398 0
-332 396 398 0
-332 -396 -398 0
395 397 -399 0
395 -397 399 0
-395 397 399 0
-395 -397 -399 0
12 19 -400 0
12 -19 -400 0
-12 19 -400 0
-12 -19 400 0
339 344 -401 0
339 -344 -401 0
-339 344 -401 0
-339 -344 401 0
339 344 -402 0
339 -344 402 0
-339 344 402 0
-339 -344 -402 0
345 350 -403 0
345 -350 -403 0
-345 350 -403 0
-345 -350 403 0
345 350 -404 0
345 -350 404 0
-345 350 404 0
-345 -350 -404 0
401 404 -405 0
401 -404 -405 0
-401 404 -405 0
-401 -404 405 0
401 404 -406 0
401 -404 406 0
-401 404 406 0
-401 -404 -406 0
403 405 -407 0
403 -405 407 0
-403 405 407 0
-403 -405 -407 0
351 356 -408 0
351 -356 -408 0
-351 356 -408 0
-351 -356 408 0
351 356 -409 0
351 -356 409 0
-351 356 409 0
-351 -356 -409 0
407 409 -410 0
407 -409 -410 0
-407 409 -410 0
-407 -409 410 0
407 409 -411 0
407 -409 411 0
-407 409 411 0
-407 -409 -411 0
408 410 -412 0
408 -410 412 0
-408 410 412 0
-408 -410 -412 0
357 362 -413 0
357 -362 -413 0
-357 362 -413 0
-357 -362 413 0
357 362 -414 0
357 -362 414 0
-357 362 414 0
-357 -362 -414 0
412 414 -415 0
412 -414 -415 0
-412 414 -415 0
-412 -414 415 0
412 414 -416 0
412 -414 416 0
-412 414 416 0
-412 -414 -416 0
413 415 -417 0
413 -415 417 0
-413 415 417 0
-413 -415 -417 0
363 368 -418 0
363 -368 -418 0
-363 368 -418 0
-363 -368 418 0
363 368 -419 0
363 -368 419 0
-363 368 419 0
-363 -368 -419 0
417 419 -420 0
417 -419 -420 0
-417 419 -420 0
-417 -419 420 0
417 419 -421 0
417 -419 421 0
-417 419 421 0
-417 -419 -421 0
418 420 -422 0
418 -420 422 0
-418 420 422 0
-418 -420 -422 0
369 374 -423 0
369 -374 -423 0
-369 374 -423 0
-369 -374 423 0
369 374 -424 0
369 -374 424 0
-369 374 424 0
-369 -374 -424 0
422 424 -425 0
422 -424 -425 0
-422 424 -425 0
-422 -424 425 0
422 424 -426 0
422 -424 426 0
-422 424 426 0
-422 -424 -426 0
423 425 -427 0
423 -425 427 0
-423 425 427 0
-423 -425 -427 0
375 380 -428 0
375 -380 -428 0
-375 380 -428 0
-375 -380 428 0
375 380 -429 0
375 -380 429 0
-375 380 429 0
-375 -380 -429 0
427 429 -430 0
427 -429 -430 0
-427 429 -430 0
-427 -429 430 0
427 429 -431 0
427 -429 431 0
-427 429 431 0
-427 -429 -431 0
428 430 -432 0
428 -430 432 0
-428 430 432 0
-428 -430 -432 0
381 386 -433 0
381 -386 -433 0
-381 386 -433 0
-381 -386 433 0
381 386 -434 0
381 -386 434 0
-381 386 434 0
-381 -386 -434 0
432 434 -435 0
432 -434 -435 0
-432 434 -435 0
-432 -434 435 0
432 434 -436 0
432 -434 436 0
-432 434 436 0
-432 -434 -436 0
433 435 -437 0
433 -435 437 0
-433 435 437 0
-433 -435 -437 0
387 392 -438 0
387 -392 -438 0
-387 392 -438 0
-387 -392 438 0
387 392 -439 0
387 -392 439 0
-387 392 439 0
-387 -392 -439 0
437 439 -440 0
437 -439 -440 0
-437 439 -440 0
-437 -439 440 0
437 439 -441 0
437 -439 441 0
-437 439 441 0
-437 -439 -441 0
438 440 -442 0
438 -440 442 0
-438 440 442 0
-438 -440 -442 0
393 398 -443 0
393 -398 -443 0
-393 398 -443 0
-393 -398 443 0
393 398 -444 0
393 -398 444 0
-393 398 444 0
-393 -398 -444 0
442 444 -445 0
442 -444 -445 0
-442 444 -445 0
-442 -444 445 0
442 444 -446 0
442 -444 446 0
-442 444 446 0
-442 -444 -446 0
443 445 -447 0
443 -445 447 0
-443 445 447 0
-443 -445 -447 0
399 400 -448 0
399 -400 -448 0
-399 400 -448 0
-399 -400 448 0
399 400 -449 0
399 -400 449 0
-399 400 449 0
-399 -400 -449 0
447 449 -450 0
447 -449 -450 0
-447 449 -450 0
-447 -449 450 0
447 449 -451 0
447 -449 451 0
-447 449 451 0
-447 -449 -451 0
448 450 -452 0
448 -450 452 0
-448 450 452 0
-448 -450 -452 0
20 0
-34 0
-70 0
137 0
-204 0
-271 0
-338 0
402 0
406 0
411 0
-416 0
-421 0
426 0
-431 0
-436 0
-441 0
-446 0
-451 0
-452 0